g3 0 1 0	# problem 2758
 303 251 1 0 243	# vars, constraints, objectives, ranges, eqns
 112 0	# nonlinear constraints, objectives
 0 0	# network constraints: nonlinear, linear
 70 0 0	# nonlinear vars in constraints, objectives, both
 0 0 0 1	# linear network variables; functions; arith, flags
 0 0 0 0 0	# discrete variables: binary, integer, nonlinear (b,c,o)
 1097 7	# nonzeros in Jacobian, gradients
 0 0	# max name lengths: constraints, variables
 0 0 0 0 0	# common exprs: b,c,o,c1,o1
b
0 0 1e+06
0 0 1e+06
0 0 1e+06
0 0 1e+06
0 0 1e+06
0 0 1e+06
0 0 1e+06
0 0 1e+06
0 0 1e+06
0 0 1e+06
0 0 1e+06
0 0 1e+06
0 0 1e+06
0 0 1e+06
0 0 1e+06
0 0 1e+06
0 0 1e+06
0 0 1e+06
0 0 1e+06
0 0 1e+06
0 0 1e+06
0 0 1e+06
0 0 1e+06
0 0 1e+06
0 0 1e+06
0 0 1e+06
0 0 1e+06
0 0 1e+06
0 0 1e+06
0 0 1e+06
0 0 1e+06
0 0 1e+06
0 0 1e+06
0 0 1e+06
0 0 1e+06
0 0 1e+06
0 0 1e+06
0 0 1e+06
0 0 1e+06
0 0 1e+06
0 0 1e+06
0 0 1e+06
0 0 1e+06
0 0 1e+06
0 0 1e+06
0 0 1e+06
0 0 1e+06
0 0 1e+06
0 0 1e+06
0 0 1e+06
0 0 1e+06
0 0 1e+06
0 0 1e+06
0 0 1e+06
0 0 1e+06
0 0 1e+06
0 0 1e+06
0 0 1e+06
0 0 1e+06
0 0 1e+06
0 0 1e+06
0 0 1e+06
0 0 1e+06
0 0 1e+06
0 0 1e+06
0 0 1e+06
0 0 1e+06
0 0 1e+06
0 0 1e+06
0 0 1e+06
0 0 1e+06
0 0 1e+06
0 0 1e+06
0 0 1e+06
0 0 1e+06
0 0 1e+06
0 0 1e+06
0 0 1e+06
0 0 1e+06
0 0 1e+06
0 0 1e+06
0 0 1e+06
0 0 1e+06
0 0 1e+06
0 0 1e+06
0 0 1e+06
0 0 1e+06
0 0 1e+06
0 0 1e+06
0 0 1e+06
0 0 1e+06
0 0 1e+06
0 0 1e+06
0 0 1e+06
0 0 1e+06
0 0 1e+06
0 0 1e+06
0 0 1e+06
0 0 1e+06
0 0 1e+06
0 0 1e+06
0 0 1e+06
0 0 1e+06
0 0 1e+06
0 0 1e+06
0 0 1e+06
0 0 1e+06
0 0 1e+06
0 0 1e+06
0 0 1e+06
0 0 1e+06
0 0 1e+06
0 0 1e+06
0 0 1e+06
0 0 1e+06
0 0 1e+06
0 0 1e+06
0 0 1e+06
0 0 1e+06
0 0 1e+06
0 0 1e+06
0 0 1e+06
0 0 1e+06
0 0 1e+06
0 0 1e+06
0 0 1e+06
0 0 1e+06
0 0 1e+06
0 0 1e+06
0 0 1e+06
0 0 1e+06
0 0 1e+06
0 0 1e+06
0 0 1e+06
0 0 1e+06
0 0 1e+06
0 0 1e+06
0 0 1e+06
0 0 1e+06
0 0 1e+06
0 0 1e+06
0 0 1e+06
0 0 1e+06
0 0 1e+06
0 0 1e+06
0 0 1e+06
0 0 1e+06
0 0 1e+06
0 0 1e+06
0 0 1e+06
0 0 1e+06
0 0 1e+06
0 0 1e+06
0 0 1e+06
0 0 1e+06
0 0 1e+06
0 0 1e+06
0 0 1e+06
0 0 1e+06
0 0 1e+06
0 0 1e+06
0 0 1e+06
0 0 1e+06
0 0 1e+06
0 0 1e+06
0 0 1e+06
0 0 1e+06
0 0 1e+06
0 0 1e+06
0 0 1e+06
0 0 1e+06
0 0 1e+06
0 0 1e+06
0 0 1e+06
0 0 1e+06
0 0 1e+06
0 0 1e+06
0 0 1e+06
0 0 1e+06
0 0 1e+06
0 0 1e+06
0 0 1e+06
0 0 1e+06
0 0 1e+06
0 0 1e+06
0 0 1e+06
0 0 1e+06
0 0 1e+06
0 0 1e+06
0 0 1e+06
0 0 1e+06
0 0 1e+06
0 0 1e+06
0 0 1e+06
0 0 1e+06
0 0 1e+06
0 0 1e+06
0 0 1e+06
0 0 1e+06
0 0 1e+06
0 0 1e+06
0 0 1e+06
0 0 1e+06
0 0 1e+06
0 0 1e+06
0 0 1e+06
0 0 1e+06
0 0 1e+06
0 0 1e+06
0 0 1e+06
0 0 1e+06
0 0 1e+06
0 0 1e+06
0 0 1e+06
0 0 1e+06
0 0 1e+06
0 0 1e+06
0 0 1e+06
0 0 1e+06
0 0 1e+06
0 0 1e+06
0 0 1e+06
0 0 1e+06
0 0 1e+06
0 0 1e+06
0 0 1e+06
0 0 1e+06
0 0 1e+06
0 0 1e+06
0 0 1e+06
0 0 1e+06
0 0 1e+06
0 0 1e+06
0 0 1e+06
0 0 1e+06
0 0 1e+06
0 0 1e+06
0 0 1e+06
0 0 1e+06
0 0 1e+06
0 0 1e+06
0 0 1e+06
0 0 1e+06
0 0 1e+06
0 0 1e+06
0 0 1e+06
0 0 1e+06
0 0 1e+06
0 0 1e+06
0 0 1e+06
0 0 1e+06
0 0 1e+06
0 0 1e+06
0 0 1e+06
0 0 1e+06
0 0 1e+06
0 0 1e+06
0 0 1e+06
0 0 1e+06
0 0 1e+06
0 0 1e+06
0 0 1e+06
0 0 1e+06
0 0 1e+06
0 0 1e+06
0 0 1e+06
0 0 1e+06
0 0 1e+06
0 0 1e+06
0 0 1e+06
0 0 1e+06
0 0 1e+06
0 0 1e+06
0 0 1e+06
0 0 1e+06
0 0 1e+06
0 0 1e+06
0 0 1e+06
0 0 1e+06
0 0 1e+06
0 0 1e+06
0 0 1e+06
0 0 1e+06
0 0 1e+06
0 0 1e+06
0 0 1e+06
0 0 1e+06
0 0 1e+06
0 0 1e+06
0 0 1e+06
0 0 1e+06
0 0 1e+06
0 0 1e+06
0 0 1e+06
0 0 1e+06
0 0 1e+06
0 0 1e+06
0 0 1e+06
0 0 1e+06
0 0 1e+06
0 0 1e+06
0 0 1e+06
0 0 1e+06
r
4 0
4 0
4 0
4 0
4 0
4 0
4 0
4 0
4 0
4 0
4 0
4 0
4 0
4 0
4 0
4 0
4 0
4 0
4 0
4 0
4 0
4 0
4 0
4 0
4 0
4 0
4 0
4 0
4 0
4 0
4 0
4 0
4 0
4 0
4 0
4 0
4 0
4 0
4 0
4 0
4 0
4 0
4 0
4 0
4 0
4 0
4 0
4 0
4 0
4 0
4 0
4 0
4 0
4 0
4 0
4 0
4 0
4 0
4 0
4 0
4 0
4 0
4 0
4 0
4 0
4 0
4 0
4 0
4 0
4 0
4 0
4 0
4 0
4 0
4 0
4 0
4 0
4 0
4 0
4 0
4 0
4 0
4 0
4 0
4 0
4 0
4 0
4 0
4 0
4 0
4 0
4 0
4 0
4 0
4 0
4 0
4 0
4 0
4 0
4 0
4 0
4 0
4 0
4 0
4 0
4 0
4 0
4 0
4 0
4 0
4 0
4 0
4 -80
4 -450
4 -230
4 -90
4 -330
4 0
4 0
4 0
4 0
4 0
4 0
4 0
4 0
4 0
4 0
4 0
4 0
4 0
4 0
4 0
4 -960
4 -22500
4 -115000
4 -36000
4 -39600
4 0
4 0
4 0
4 0
4 0
4 0
4 0
4 0
4 0
4 0
4 0
4 0
4 0
4 0
4 0
4 0
4 0
4 0
4 0
4 0
4 0
4 0
4 0
4 0
4 0
4 0
4 0
4 0
4 0
4 0
4 0
4 0
4 0
4 0
4 0
4 0
4 0
4 0
4 0
4 0
4 0
4 0
4 0
4 0
4 0
4 0
4 0
4 0
4 0
4 0
4 0
4 0
4 0
4 0
4 0
4 0
4 0
4 0
4 0
4 0
4 0
4 0
4 0
4 0
4 0
4 0
4 0
4 0
4 0
4 0
4 0
4 0
4 0
4 0
4 0
4 0
4 0
4 0
4 0
4 0
4 1
4 1
4 1
4 1
4 1
1 0
1 0
1 0
1 0
1 0
1 0
1 0
4 0
4 0
4 0
4 0
4 0
4 0
4 0
4 0
4 0
4 0
4 0
4 0
4 0
4 0
4 1
4 1
4 1
4 1
4 1
4 1
4 1
1 0
C0
o2
v14
v7
C1
o2
v15
v7
C2
o2
v16
v7
C3
o2
v17
v7
C4
o2
v18
v7
C5
o2
v19
v7
C6
o2
v20
v7
C7
o2
v22
v8
C8
o2
v23
v8
C9
o2
v24
v8
C10
o2
v25
v8
C11
o2
v26
v8
C12
o2
v27
v8
C13
o2
v28
v8
C14
o2
v30
v9
C15
o2
v31
v9
C16
o2
v32
v9
C17
o2
v33
v9
C18
o2
v34
v9
C19
o2
v35
v9
C20
o2
v36
v9
C21
o2
v38
v10
C22
o2
v39
v10
C23
o2
v40
v10
C24
o2
v41
v10
C25
o2
v42
v10
C26
o2
v43
v10
C27
o2
v44
v10
C28
o2
v46
v11
C29
o2
v47
v11
C30
o2
v48
v11
C31
o2
v49
v11
C32
o2
v50
v11
C33
o2
v51
v11
C34
o2
v52
v11
C35
o2
v54
v12
C36
o2
v55
v12
C37
o2
v56
v12
C38
o2
v57
v12
C39
o2
v58
v12
C40
o2
v59
v12
C41
o2
v60
v12
C42
o2
v62
v13
C43
o2
v63
v13
C44
o2
v64
v13
C45
o2
v65
v13
C46
o2
v66
v13
C47
o2
v67
v13
C48
o2
v68
v13
C49
o2
v21
v7
C50
o2
v29
v8
C51
o2
v37
v9
C52
o2
v45
v10
C53
o2
v53
v11
C54
o2
v61
v12
C55
o2
v69
v13
C56
o2
v14
v0
C57
o2
v15
v0
C58
o2
v16
v0
C59
o2
v17
v0
C60
o2
v18
v0
C61
o2
v19
v0
C62
o2
v20
v0
C63
o2
v22
v1
C64
o2
v23
v1
C65
o2
v24
v1
C66
o2
v25
v1
C67
o2
v26
v1
C68
o2
v27
v1
C69
o2
v28
v1
C70
o2
v30
v2
C71
o2
v31
v2
C72
o2
v32
v2
C73
o2
v33
v2
C74
o2
v34
v2
C75
o2
v35
v2
C76
o2
v36
v2
C77
o2
v38
v3
C78
o2
v39
v3
C79
o2
v40
v3
C80
o2
v41
v3
C81
o2
v42
v3
C82
o2
v43
v3
C83
o2
v44
v3
C84
o2
v46
v4
C85
o2
v47
v4
C86
o2
v48
v4
C87
o2
v49
v4
C88
o2
v50
v4
C89
o2
v51
v4
C90
o2
v52
v4
C91
o2
v54
v5
C92
o2
v55
v5
C93
o2
v56
v5
C94
o2
v57
v5
C95
o2
v58
v5
C96
o2
v59
v5
C97
o2
v60
v5
C98
o2
v62
v6
C99
o2
v63
v6
C100
o2
v64
v6
C101
o2
v65
v6
C102
o2
v66
v6
C103
o2
v67
v6
C104
o2
v68
v6
C105
o2
v21
v0
C106
o2
v29
v1
C107
o2
v37
v2
C108
o2
v45
v3
C109
o2
v53
v4
C110
o2
v61
v5
C111
o2
v69
v6
C112
n0
C113
n0
C114
n0
C115
n0
C116
n0
C117
n0
C118
n0
C119
n0
C120
n0
C121
n0
C122
n0
C123
n0
C124
n0
C125
n0
C126
n0
C127
n0
C128
n0
C129
n0
C130
n0
C131
n0
C132
n0
C133
n0
C134
n0
C135
n0
C136
n0
C137
n0
C138
n0
C139
n0
C140
n0
C141
n0
C142
n0
C143
n0
C144
n0
C145
n0
C146
n0
C147
n0
C148
n0
C149
n0
C150
n0
C151
n0
C152
n0
C153
n0
C154
n0
C155
n0
C156
n0
C157
n0
C158
n0
C159
n0
C160
n0
C161
n0
C162
n0
C163
n0
C164
n0
C165
n0
C166
n0
C167
n0
C168
n0
C169
n0
C170
n0
C171
n0
C172
n0
C173
n0
C174
n0
C175
n0
C176
n0
C177
n0
C178
n0
C179
n0
C180
n0
C181
n0
C182
n0
C183
n0
C184
n0
C185
n0
C186
n0
C187
n0
C188
n0
C189
n0
C190
n0
C191
n0
C192
n0
C193
n0
C194
n0
C195
n0
C196
n0
C197
n0
C198
n0
C199
n0
C200
n0
C201
n0
C202
n0
C203
n0
C204
n0
C205
n0
C206
n0
C207
n0
C208
n0
C209
n0
C210
n0
C211
n0
C212
n0
C213
n0
C214
n0
C215
n0
C216
n0
C217
n0
C218
n0
C219
n0
C220
n0
C221
n0
C222
n0
C223
n0
C224
n0
C225
n0
C226
n0
C227
n0
C228
n0
C229
n0
C230
n0
C231
n0
C232
n0
C233
n0
C234
n0
C235
n0
C236
n0
C237
n0
C238
n0
C239
n0
C240
n0
C241
n0
C242
n0
C243
n0
C244
n0
C245
n0
C246
n0
C247
n0
C248
n0
C249
n0
C250
n0
O0 0
n0
k302
11
22
33
44
55
66
77
87
97
107
117
127
137
147
150
153
156
159
162
165
168
171
174
177
180
183
186
189
192
195
198
201
204
207
210
213
216
219
222
225
228
231
234
237
240
243
246
249
252
255
258
261
264
267
270
273
276
279
282
285
288
291
294
297
300
303
306
309
312
315
318
321
324
327
330
333
336
339
342
345
348
351
354
357
360
363
366
369
372
375
378
381
384
387
390
393
396
399
402
405
408
411
414
417
420
423
426
429
432
435
438
441
444
447
450
453
456
459
462
465
468
471
474
477
480
483
486
489
492
495
498
501
504
507
510
513
516
519
522
525
528
531
534
537
540
543
546
549
552
555
558
561
564
567
570
573
576
579
582
585
588
591
594
597
600
603
605
608
612
616
620
624
628
632
636
639
643
647
651
655
659
663
667
670
674
678
682
686
690
694
698
701
705
709
713
717
721
725
729
732
736
740
744
748
752
756
760
763
766
769
772
775
778
781
784
787
790
793
796
799
802
805
808
811
814
817
820
823
826
829
832
835
838
841
844
847
850
853
856
859
862
865
868
871
874
877
880
884
888
892
896
900
904
908
912
916
920
924
928
932
936
940
944
948
952
956
960
964
968
972
976
980
984
988
992
996
1000
1004
1008
1012
1016
1020
1024
1028
1032
1036
1040
1044
1048
1052
1056
1060
1064
1068
1072
1076
1079
1082
1085
1088
1091
1094
J0 3
7 0
14 0
247 -1
J1 3
7 0
15 0
254 -1
J2 3
7 0
16 0
261 -1
J3 3
7 0
17 0
268 -1
J4 3
7 0
18 0
275 -1
J5 3
7 0
19 0
282 -1
J6 3
7 0
20 0
289 -1
J7 3
8 0
22 0
248 -1
J8 3
8 0
23 0
255 -1
J9 3
8 0
24 0
262 -1
J10 3
8 0
25 0
269 -1
J11 3
8 0
26 0
276 -1
J12 3
8 0
27 0
283 -1
J13 3
8 0
28 0
290 -1
J14 3
9 0
30 0
249 -1
J15 3
9 0
31 0
256 -1
J16 3
9 0
32 0
263 -1
J17 3
9 0
33 0
270 -1
J18 3
9 0
34 0
277 -1
J19 3
9 0
35 0
284 -1
J20 3
9 0
36 0
291 -1
J21 3
10 0
38 0
250 -1
J22 3
10 0
39 0
257 -1
J23 3
10 0
40 0
264 -1
J24 3
10 0
41 0
271 -1
J25 3
10 0
42 0
278 -1
J26 3
10 0
43 0
285 -1
J27 3
10 0
44 0
292 -1
J28 3
11 0
46 0
251 -1
J29 3
11 0
47 0
258 -1
J30 3
11 0
48 0
265 -1
J31 3
11 0
49 0
272 -1
J32 3
11 0
50 0
279 -1
J33 3
11 0
51 0
286 -1
J34 3
11 0
52 0
293 -1
J35 3
12 0
54 0
252 -1
J36 3
12 0
55 0
259 -1
J37 3
12 0
56 0
266 -1
J38 3
12 0
57 0
273 -1
J39 3
12 0
58 0
280 -1
J40 3
12 0
59 0
287 -1
J41 3
12 0
60 0
294 -1
J42 3
13 0
62 0
253 -1
J43 3
13 0
63 0
260 -1
J44 3
13 0
64 0
267 -1
J45 3
13 0
65 0
274 -1
J46 3
13 0
66 0
281 -1
J47 3
13 0
67 0
288 -1
J48 3
13 0
68 0
295 -1
J49 3
7 0
21 0
296 -1
J50 3
8 0
29 0
297 -1
J51 3
9 0
37 0
298 -1
J52 3
10 0
45 0
299 -1
J53 3
11 0
53 0
300 -1
J54 3
12 0
61 0
301 -1
J55 3
13 0
69 0
302 -1
J56 3
0 0
14 0
110 -1
J57 3
0 0
15 0
117 -1
J58 3
0 0
16 0
124 -1
J59 3
0 0
17 0
131 -1
J60 3
0 0
18 0
138 -1
J61 3
0 0
19 0
145 -1
J62 3
0 0
20 0
152 -1
J63 3
1 0
22 0
111 -1
J64 3
1 0
23 0
118 -1
J65 3
1 0
24 0
125 -1
J66 3
1 0
25 0
132 -1
J67 3
1 0
26 0
139 -1
J68 3
1 0
27 0
146 -1
J69 3
1 0
28 0
153 -1
J70 3
2 0
30 0
112 -1
J71 3
2 0
31 0
119 -1
J72 3
2 0
32 0
126 -1
J73 3
2 0
33 0
133 -1
J74 3
2 0
34 0
140 -1
J75 3
2 0
35 0
147 -1
J76 3
2 0
36 0
154 -1
J77 3
3 0
38 0
113 -1
J78 3
3 0
39 0
120 -1
J79 3
3 0
40 0
127 -1
J80 3
3 0
41 0
134 -1
J81 3
3 0
42 0
141 -1
J82 3
3 0
43 0
148 -1
J83 3
3 0
44 0
155 -1
J84 3
4 0
46 0
114 -1
J85 3
4 0
47 0
121 -1
J86 3
4 0
48 0
128 -1
J87 3
4 0
49 0
135 -1
J88 3
4 0
50 0
142 -1
J89 3
4 0
51 0
149 -1
J90 3
4 0
52 0
156 -1
J91 3
5 0
54 0
115 -1
J92 3
5 0
55 0
122 -1
J93 3
5 0
56 0
129 -1
J94 3
5 0
57 0
136 -1
J95 3
5 0
58 0
143 -1
J96 3
5 0
59 0
150 -1
J97 3
5 0
60 0
157 -1
J98 3
6 0
62 0
116 -1
J99 3
6 0
63 0
123 -1
J100 3
6 0
64 0
130 -1
J101 3
6 0
65 0
137 -1
J102 3
6 0
66 0
144 -1
J103 3
6 0
67 0
151 -1
J104 3
6 0
68 0
158 -1
J105 3
0 0
21 0
159 -1
J106 3
1 0
29 0
160 -1
J107 3
2 0
37 0
161 -1
J108 3
3 0
45 0
162 -1
J109 3
4 0
53 0
163 -1
J110 3
5 0
61 0
164 -1
J111 3
6 0
69 0
165 -1
J112 8
70 -1
71 -1
72 -1
73 -1
74 -1
75 -1
76 -1
77 -1
J113 8
78 -1
79 -1
80 -1
81 -1
82 -1
83 -1
84 -1
85 -1
J114 8
86 -1
87 -1
88 -1
89 -1
90 -1
91 -1
92 -1
93 -1
J115 8
94 -1
95 -1
96 -1
97 -1
98 -1
99 -1
100 -1
101 -1
J116 8
102 -1
103 -1
104 -1
105 -1
106 -1
107 -1
108 -1
109 -1
J117 13
0 1
71 -1
79 -1
87 -1
95 -1
103 -1
110 -1
111 -1
112 -1
113 -1
114 -1
115 -1
116 -1
J118 13
1 1
72 -1
80 -1
88 -1
96 -1
104 -1
117 -1
118 -1
119 -1
120 -1
121 -1
122 -1
123 -1
J119 13
2 1
73 -1
81 -1
89 -1
97 -1
105 -1
124 -1
125 -1
126 -1
127 -1
128 -1
129 -1
130 -1
J120 13
3 1
74 -1
82 -1
90 -1
98 -1
106 -1
131 -1
132 -1
133 -1
134 -1
135 -1
136 -1
137 -1
J121 13
4 1
75 -1
83 -1
91 -1
99 -1
107 -1
138 -1
139 -1
140 -1
141 -1
142 -1
143 -1
144 -1
J122 13
5 1
76 -1
84 -1
92 -1
100 -1
108 -1
145 -1
146 -1
147 -1
148 -1
149 -1
150 -1
151 -1
J123 13
6 1
77 -1
85 -1
93 -1
101 -1
109 -1
152 -1
153 -1
154 -1
155 -1
156 -1
157 -1
158 -1
J124 9
0 1
110 -1
117 -1
124 -1
131 -1
138 -1
145 -1
152 -1
159 -1
J125 9
1 1
111 -1
118 -1
125 -1
132 -1
139 -1
146 -1
153 -1
160 -1
J126 9
2 1
112 -1
119 -1
126 -1
133 -1
140 -1
147 -1
154 -1
161 -1
J127 9
3 1
113 -1
120 -1
127 -1
134 -1
141 -1
148 -1
155 -1
162 -1
J128 9
4 1
114 -1
121 -1
128 -1
135 -1
142 -1
149 -1
156 -1
163 -1
J129 9
5 1
115 -1
122 -1
129 -1
136 -1
143 -1
150 -1
157 -1
164 -1
J130 9
6 1
116 -1
123 -1
130 -1
137 -1
144 -1
151 -1
158 -1
165 -1
J131 13
70 -1
78 -1
86 -1
94 -1
102 -1
159 -1
160 -1
161 -1
162 -1
163 -1
164 -1
165 -1
166 1
J132 8
167 -1
168 -1
169 -1
170 -1
171 -1
172 -1
173 -1
174 -1
J133 8
175 -1
176 -1
177 -1
178 -1
179 -1
180 -1
181 -1
182 -1
J134 8
183 -1
184 -1
185 -1
186 -1
187 -1
188 -1
189 -1
190 -1
J135 8
191 -1
192 -1
193 -1
194 -1
195 -1
196 -1
197 -1
198 -1
J136 8
199 -1
200 -1
201 -1
202 -1
203 -1
204 -1
205 -1
206 -1
J137 2
168 -1
207 960
J138 2
169 -1
208 960
J139 2
170 -1
209 960
J140 2
171 -1
210 960
J141 2
172 -1
211 960
J142 2
173 -1
212 960
J143 2
174 -1
213 960
J144 2
176 -1
214 22500
J145 2
177 -1
215 22500
J146 2
178 -1
216 22500
J147 2
179 -1
217 22500
J148 2
180 -1
218 22500
J149 2
181 -1
219 22500
J150 2
182 -1
220 22500
J151 2
184 -1
221 115000
J152 2
185 -1
222 115000
J153 2
186 -1
223 115000
J154 2
187 -1
224 115000
J155 2
188 -1
225 115000
J156 2
189 -1
226 115000
J157 2
190 -1
227 115000
J158 2
192 -1
228 36000
J159 2
193 -1
229 36000
J160 2
194 -1
230 36000
J161 2
195 -1
231 36000
J162 2
196 -1
232 36000
J163 2
197 -1
233 36000
J164 2
198 -1
234 36000
J165 2
200 -1
235 39600
J166 2
201 -1
236 39600
J167 2
202 -1
237 39600
J168 2
203 -1
238 39600
J169 2
204 -1
239 39600
J170 2
205 -1
240 39600
J171 2
206 -1
241 39600
J172 2
167 -1
242 960
J173 2
175 -1
243 22500
J174 2
183 -1
244 115000
J175 2
191 -1
245 36000
J176 2
199 -1
246 39600
J177 2
71 -1
207 80
J178 2
72 -1
208 80
J179 2
73 -1
209 80
J180 2
74 -1
210 80
J181 2
75 -1
211 80
J182 2
76 -1
212 80
J183 2
77 -1
213 80
J184 2
79 -1
214 450
J185 2
80 -1
215 450
J186 2
81 -1
216 450
J187 2
82 -1
217 450
J188 2
83 -1
218 450
J189 2
84 -1
219 450
J190 2
85 -1
220 450
J191 2
87 -1
221 230
J192 2
88 -1
222 230
J193 2
89 -1
223 230
J194 2
90 -1
224 230
J195 2
91 -1
225 230
J196 2
92 -1
226 230
J197 2
93 -1
227 230
J198 2
95 -1
228 90
J199 2
96 -1
229 90
J200 2
97 -1
230 90
J201 2
98 -1
231 90
J202 2
99 -1
232 90
J203 2
100 -1
233 90
J204 2
101 -1
234 90
J205 2
103 -1
235 330
J206 2
104 -1
236 330
J207 2
105 -1
237 330
J208 2
106 -1
238 330
J209 2
107 -1
239 330
J210 2
108 -1
240 330
J211 2
109 -1
241 330
J212 2
70 -1
242 80
J213 2
78 -1
243 450
J214 2
86 -1
244 230
J215 2
94 -1
245 90
J216 2
102 -1
246 330
J217 8
207 1
208 1
209 1
210 1
211 1
212 1
213 1
242 1
J218 8
214 1
215 1
216 1
217 1
218 1
219 1
220 1
243 1
J219 8
221 1
222 1
223 1
224 1
225 1
226 1
227 1
244 1
J220 8
228 1
229 1
230 1
231 1
232 1
233 1
234 1
245 1
J221 8
235 1
236 1
237 1
238 1
239 1
240 1
241 1
246 1
J222 13
0 -400
168 1
176 1
184 1
192 1
200 1
247 1
248 1
249 1
250 1
251 1
252 1
253 1
J223 13
1 -100
169 1
177 1
185 1
193 1
201 1
254 1
255 1
256 1
257 1
258 1
259 1
260 1
J224 13
2 -50
170 1
178 1
186 1
194 1
202 1
261 1
262 1
263 1
264 1
265 1
266 1
267 1
J225 13
3 -570
171 1
179 1
187 1
195 1
203 1
268 1
269 1
270 1
271 1
272 1
273 1
274 1
J226 13
4 -100
172 1
180 1
188 1
196 1
204 1
275 1
276 1
277 1
278 1
279 1
280 1
281 1
J227 13
5 -30
173 1
181 1
189 1
197 1
205 1
282 1
283 1
284 1
285 1
286 1
287 1
288 1
J228 13
6 -640
174 1
182 1
190 1
198 1
206 1
289 1
290 1
291 1
292 1
293 1
294 1
295 1
J229 13
7 -1
168 0.9
176 0.9
184 0.9
192 0.9
200 0.9
247 0.9
248 0.9
249 0.9
250 0.9
251 0.9
252 0.9
253 0.9
J230 13
8 -1
169 0.6
177 0.6
185 0.6
193 0.6
201 0.6
254 0.6
255 0.6
256 0.6
257 0.6
258 0.6
259 0.6
260 0.6
J231 13
9 -1
170 0.15
178 0.15
186 0.15
194 0.15
202 0.15
261 0.15
262 0.15
263 0.15
264 0.15
265 0.15
266 0.15
267 0.15
J232 13
10 -1
171 0.26
179 0.26
187 0.26
195 0.26
203 0.26
268 0.26
269 0.26
270 0.26
271 0.26
272 0.26
273 0.26
274 0.26
J233 13
11 -1
172 0.1
180 0.1
188 0.1
196 0.1
204 0.1
275 0.1
276 0.1
277 0.1
278 0.1
279 0.1
280 0.1
281 0.1
J234 13
12 -1
173 0.4
181 0.4
189 0.4
197 0.4
205 0.4
282 0.4
283 0.4
284 0.4
285 0.4
286 0.4
287 0.4
288 0.4
J235 13
13 -1
174 0.3
182 0.3
190 0.3
198 0.3
206 0.3
289 0.3
290 0.3
291 0.3
292 0.3
293 0.3
294 0.3
295 0.3
J236 9
7 1
247 -1
254 -1
261 -1
268 -1
275 -1
282 -1
289 -1
296 -1
J237 9
8 1
248 -1
255 -1
262 -1
269 -1
276 -1
283 -1
290 -1
297 -1
J238 9
9 1
249 -1
256 -1
263 -1
270 -1
277 -1
284 -1
291 -1
298 -1
J239 9
10 1
250 -1
257 -1
264 -1
271 -1
278 -1
285 -1
292 -1
299 -1
J240 9
11 1
251 -1
258 -1
265 -1
272 -1
279 -1
286 -1
293 -1
300 -1
J241 9
12 1
252 -1
259 -1
266 -1
273 -1
280 -1
287 -1
294 -1
301 -1
J242 9
13 1
253 -1
260 -1
267 -1
274 -1
281 -1
288 -1
295 -1
302 -1
J243 8
14 1
15 1
16 1
17 1
18 1
19 1
20 1
21 1
J244 8
22 1
23 1
24 1
25 1
26 1
27 1
28 1
29 1
J245 8
30 1
31 1
32 1
33 1
34 1
35 1
36 1
37 1
J246 8
38 1
39 1
40 1
41 1
42 1
43 1
44 1
45 1
J247 8
46 1
47 1
48 1
49 1
50 1
51 1
52 1
53 1
J248 8
54 1
55 1
56 1
57 1
58 1
59 1
60 1
61 1
J249 8
62 1
63 1
64 1
65 1
66 1
67 1
68 1
69 1
J250 13
166 -4
167 1
175 1
183 1
191 1
199 1
296 1
297 1
298 1
299 1
300 1
301 1
302 1
G0 7
0 1
1 1
2 1
3 1
4 1
5 1
6 1
